8550
4, 25, 26, 47, 14, 52, 13, 27, 28, 12, 11, 51, 33, 43, 15, 24, 48, 46, 50, 20, 23, 21, 42, 7, 2, 30, 29, 16, 44, 1, 22, 31, 18, 17, 3, 41, 8, 9, 10, 19, 45, 32, 49, 36, 35, 34, 39, 40, 37, 38, 5, 6
